50

99 7 175
96 26 255
96 25 179
96 18 283
95 22 192
95 47 326
94 45 170
90 16 266
90 45 283
88 26 301
87 10 254
84 13 154
82 22 305
78 34 333
77 19 212
77 15 325
77 36 224
75 6 173
75 5 257
70 17 206
70 20 354
69 13 353
68 10 157
56 23 202
54 13 357
53 5 287
53 22 345
50 7 233
50 7 244
49 4 327
48 8 322
47 17 360
45 4 313
38 1 176
36 18 186
35 7 230
34 1 306
28 0 178
25 6 153
21 1 317
19 2 250
18 2 189
16 6 199
13 1 359
13 7 294
7 3 337
7 4 333
6 0 228
3 0 332
3 2 322
